p cnf 25 42
-7 -21 0
-8 -21 0
-16 22 -18 -10 0
-22 19 -12 0
-6 -19 23 0
-13 -8 -23 -4 -2 0
-13 -23 -4 -7 -2 0
-13 -8 -23 -3 -2 0
24 -7 -5 -19 0
-24 -13 -3 -2 0
-24 -13 -4 -2 0
-8 25 -5 -19 0
-13 -3 -2 -25 0
26 -13 -1 0
-6 -20 -26 0
-5 -20 -26 0
-4 -26 -25 0
-3 -26 -25 0
-8 -23 -3 -26 0
-8 -23 -4 -26 0
-23 -4 -7 -26 0
-24 -4 -26 0
-14 27 -2 0
-5 -20 -27 0
-4 -27 -25 0
-6 -27 21 -22 -4 0
-8 -23 -3 -27 0
-24 -4 -27 0
-3 -27 -25 0
-14 28 -1 0
-5 -20 -28 0
-6 -20 -28 0
-8 -23 -28 -4 0
-23 -4 -28 -7 0
-8 -23 -28 -3 0
-24 -4 -28 0
-28 -3 -25 0
-4 -28 -25 0
-7 -3 29 0
-23 -29 -27 0
-22 -29 20 0
-23 -29 -2 -13 0
